n=8;
hearts=45;
clubs=14;
spades=31;
diamonds=9;
blocked=20;
m=array2d(1..n, 1..n,[
	2,_,2,5,_,_,_,_,
	_,5,_,_,5,5,_,5,
	5,5,5,5,_,5,4,5,
	_,_,5,_,3,_,_,3,
	5,_,_,2,5,2,_,_,
	5,_,4,5,3,5,5,1,
	4,5,_,_,5,_,4,_,
	1,3,_,_,1,2,_,_
]);
